
  32    4
  10   10   10   10

   0   0   0   0   0   6 2 3 11 13 17 24 
   6   0   1   1   1   3 18 9 4 
   5   1   0   2   1   3 18 7 5 
   1   4   6   5   0   1 5 
   1   2   2   0   2   1 6 
   3   5   4   6   0   1 8 
   3   0   4   4   6   1 8 
   3   5   5   4   0   2 31 10 
   3   0   7   4   5   2 31 12 
   8   5   8   0   3   1 12 
   1   4   6   0   4   1 12 
   9   4   0   5   6   1 14 
  10   0   5   6   4   2 18 16 
   6   7   3   4   0   1 15 
   9   2   0   3   6   1 16 
   6   5   5   0   5   2 30 19 
   1   6   0   3   3   2 30 19 
   1   7   0   3   4   1 19 
   8   4   4   0   6   2 29 20 
   5   4   0   2   5   1 21 
   3   3   5   7   0   2 28 22 
   4   5   0   8   3   1 23 
   5   3   1   2   0   1 25 
   4   0   2   2   5   1 25 
   9   0   7   3   5   1 26 
   2   3   0   5   3   1 27 
   5   3   0   5   4   1 32
   5   6   2   5   0   1 32
   7   3   2   2   0   1 32
   1   1   0   5   2   1 32
   2   0   1   4   5   1 32
   0   0   0   0   0   0 
